c Reduced graph for GEOM80a_1 generated by Cyril Grelier
p edge 74 563
e 1 2
e 1 3
e 1 6
e 1 7
e 1 10
e 1 12
e 1 25
e 1 27
e 1 36
e 1 38
e 1 42
e 1 51
e 1 52
e 1 54
e 1 56
e 1 62
e 1 74
e 2 3
e 2 6
e 2 7
e 2 10
e 2 12
e 2 25
e 2 27
e 2 36
e 2 38
e 2 42
e 2 51
e 2 52
e 2 54
e 2 56
e 2 62
e 3 5
e 3 10
e 3 12
e 3 25
e 3 27
e 3 36
e 3 42
e 3 48
e 3 51
e 3 52
e 3 56
e 3 62
e 3 64
e 4 8
e 4 15
e 4 21
e 4 22
e 4 29
e 4 30
e 4 41
e 4 45
e 4 47
e 4 58
e 4 68
e 5 10
e 5 25
e 5 27
e 5 42
e 5 48
e 5 51
e 5 52
e 5 62
e 5 64
e 6 7
e 6 10
e 6 18
e 6 25
e 6 27
e 6 36
e 6 38
e 6 42
e 6 51
e 6 52
e 6 54
e 6 56
e 6 62
e 6 65
e 6 74
e 7 10
e 7 17
e 7 25
e 7 27
e 7 34
e 7 36
e 7 46
e 7 51
e 7 52
e 7 54
e 7 56
e 7 57
e 7 65
e 7 74
e 8 15
e 8 18
e 8 21
e 8 22
e 8 29
e 8 30
e 8 38
e 8 41
e 8 45
e 8 47
e 8 54
e 8 58
e 8 65
e 8 68
e 8 72
e 9 15
e 9 19
e 9 20
e 9 21
e 9 29
e 9 34
e 9 41
e 9 50
e 9 58
e 9 61
e 9 63
e 9 68
e 9 69
e 9 70
e 9 71
e 9 72
e 10 25
e 10 27
e 10 42
e 10 48
e 10 51
e 10 52
e 10 56
e 10 62
e 10 64
e 11 13
e 11 16
e 11 23
e 11 24
e 11 35
e 11 37
e 11 39
e 11 40
e 11 46
e 11 57
e 11 67
e 12 27
e 12 36
e 12 42
e 12 56
e 12 62
e 13 16
e 13 23
e 13 24
e 13 35
e 13 39
e 13 40
e 14 16
e 14 17
e 14 23
e 14 26
e 14 28
e 14 31
e 14 32
e 14 33
e 14 34
e 14 35
e 14 37
e 14 43
e 14 46
e 14 49
e 14 50
e 14 53
e 14 55
e 14 57
e 14 59
e 14 67
e 15 20
e 15 21
e 15 22
e 15 29
e 15 30
e 15 41
e 15 47
e 15 58
e 15 61
e 15 63
e 15 68
e 15 70
e 15 71
e 15 72
e 16 17
e 16 23
e 16 24
e 16 35
e 16 39
e 16 40
e 16 46
e 16 51
e 16 57
e 16 64
e 16 67
e 16 74
e 17 25
e 17 34
e 17 35
e 17 46
e 17 51
e 17 52
e 17 57
e 17 67
e 17 74
e 18 22
e 18 30
e 18 38
e 18 41
e 18 45
e 18 54
e 18 65
e 18 68
e 19 20
e 19 26
e 19 31
e 19 32
e 19 44
e 19 49
e 19 50
e 19 55
e 19 59
e 19 60
e 19 61
e 19 63
e 19 66
e 19 69
e 19 70
e 19 71
e 19 72
e 19 73
e 20 31
e 20 34
e 20 41
e 20 49
e 20 50
e 20 58
e 20 61
e 20 63
e 20 68
e 20 69
e 20 70
e 20 71
e 20 72
e 21 22
e 21 29
e 21 30
e 21 41
e 21 45
e 21 47
e 21 58
e 21 63
e 21 68
e 21 72
e 22 29
e 22 30
e 22 41
e 22 45
e 22 47
e 22 58
e 22 65
e 22 68
e 23 24
e 23 28
e 23 33
e 23 35
e 23 37
e 23 39
e 23 53
e 23 67
e 24 35
e 24 37
e 24 39
e 24 40
e 25 27
e 25 36
e 25 42
e 25 46
e 25 48
e 25 51
e 25 52
e 25 54
e 25 56
e 25 57
e 25 62
e 25 64
e 25 74
e 26 28
e 26 31
e 26 32
e 26 33
e 26 35
e 26 37
e 26 43
e 26 44
e 26 49
e 26 50
e 26 53
e 26 55
e 26 59
e 26 60
e 26 67
e 26 69
e 26 73
e 27 36
e 27 42
e 27 48
e 27 51
e 27 52
e 27 54
e 27 56
e 27 62
e 27 64
e 28 31
e 28 32
e 28 33
e 28 35
e 28 37
e 28 43
e 28 49
e 28 53
e 28 55
e 28 59
e 28 67
e 29 30
e 29 41
e 29 45
e 29 47
e 29 58
e 29 63
e 29 68
e 29 72
e 30 41
e 30 45
e 30 47
e 30 58
e 30 65
e 30 68
e 31 32
e 31 33
e 31 34
e 31 35
e 31 37
e 31 43
e 31 44
e 31 49
e 31 50
e 31 53
e 31 55
e 31 59
e 31 60
e 31 67
e 31 69
e 31 70
e 31 71
e 31 73
e 32 33
e 32 37
e 32 43
e 32 44
e 32 49
e 32 50
e 32 53
e 32 55
e 32 59
e 32 60
e 32 67
e 32 69
e 32 73
e 33 35
e 33 37
e 33 43
e 33 49
e 33 50
e 33 53
e 33 55
e 33 59
e 33 60
e 33 67
e 33 73
e 34 41
e 34 46
e 34 49
e 34 50
e 34 54
e 34 57
e 34 67
e 34 70
e 34 71
e 34 72
e 34 74
e 35 37
e 35 39
e 35 46
e 35 53
e 35 57
e 35 67
e 36 38
e 36 42
e 36 51
e 36 52
e 36 54
e 36 56
e 36 62
e 37 43
e 37 53
e 37 55
e 37 59
e 37 67
e 38 45
e 38 54
e 38 56
e 38 65
e 39 40
e 40 64
e 41 45
e 41 47
e 41 54
e 41 58
e 41 63
e 41 65
e 41 68
e 41 70
e 41 72
e 42 48
e 42 51
e 42 52
e 42 56
e 42 62
e 42 64
e 43 44
e 43 49
e 43 50
e 43 53
e 43 55
e 43 59
e 43 60
e 43 69
e 43 73
e 44 49
e 44 50
e 44 55
e 44 59
e 44 60
e 44 61
e 44 66
e 44 69
e 44 71
e 44 73
e 45 47
e 45 54
e 45 58
e 45 65
e 45 68
e 46 51
e 46 52
e 46 57
e 46 64
e 46 67
e 46 74
e 47 58
e 47 68
e 48 51
e 48 52
e 48 62
e 48 64
e 49 50
e 49 53
e 49 55
e 49 59
e 49 60
e 49 61
e 49 66
e 49 67
e 49 69
e 49 70
e 49 71
e 49 73
e 50 53
e 50 55
e 50 59
e 50 60
e 50 61
e 50 66
e 50 67
e 50 69
e 50 70
e 50 71
e 50 73
e 51 52
e 51 54
e 51 56
e 51 57
e 51 64
e 51 74
e 52 54
e 52 56
e 52 57
e 52 62
e 52 64
e 52 74
e 53 55
e 53 59
e 53 60
e 53 67
e 53 69
e 53 73
e 54 56
e 54 65
e 54 74
e 55 59
e 55 60
e 55 67
e 55 69
e 55 73
e 56 62
e 57 67
e 57 74
e 58 61
e 58 63
e 58 65
e 58 68
e 58 70
e 58 72
e 59 60
e 59 69
e 59 73
e 60 66
e 60 69
e 60 71
e 60 73
e 61 63
e 61 66
e 61 68
e 61 69
e 61 70
e 61 71
e 61 72
e 63 66
e 63 68
e 63 70
e 63 71
e 63 72
e 65 68
e 66 69
e 66 70
e 66 71
e 66 73
e 67 74
e 68 70
e 68 72
e 69 70
e 69 71
e 69 73
e 70 71
e 70 72
e 71 72
